NAME : mtspf.pid6763.gtsp.187905005.tour
COMMENT : Length = 187905005
COMMENT : Found by LKH [Keld Helsgaun] Tue Feb 11 08:46:53 2025
TYPE : TOUR
DIMENSION : 125
TOUR_SECTION
1
79
80
81
78
20
21
18
19
2
74
75
76
77
95
96
97
94
40
41
38
39
63
64
65
62
56
57
54
55
11
12
13
10
66
67
68
69
4
30
31
32
33
61
58
59
60
112
113
110
111
27
28
29
26
36
37
34
35
115
116
117
114
44
45
42
43
3
91
92
93
90
5
71
72
73
70
102
103
104
105
14
15
16
17
106
107
108
109
89
86
87
88
120
121
118
119
51
52
53
50
47
48
49
46
6
7
8
9
83
84
85
82
124
125
122
123
23
24
25
22
98
99
100
101
-1
EOF
